 C Cl  H 
 1.0000000000000000
    10.0000000000000000    0.0000000000000000    0.0000000000000000
     0.0000000000000000   10.0000000000000000    0.0000000000000000
     0.0000000000000000    0.0000000000000000   10.0000000000000000
   1   1   3
Cartesian
  4.2950300000000006  4.7713450000000002  4.9666800000000002
  6.0619999999999994  4.7713450000000002  4.9666800000000002
  3.9379999999999997  4.3140349999999996  5.8920399999999997
  3.9379999999999997  4.1986150000000002  4.1079600000000003
  3.9379999999999997  5.8013849999999998  4.9000399999999997
