 C Cl  H                                
   1.00000000000000     
    10.0000000000000000    0.0000000000000000    0.0000000000000000
     0.0000000000000000   10.0000000000000000    0.0000000000000000
     0.0000000000000000    0.0000000000000000   10.0000000000000000
   C    Cl   H 
     1     1     3
Direct
  0.4295029999999969  0.4771344999999982  0.4966679999999997
  0.6062000000000012  0.4771344999999982  0.4966679999999997
  0.3937999999999988  0.4314035000000018  0.5892040000000023
  0.3937999999999988  0.4198615000000032  0.4107959999999977
  0.3937999999999988  0.5801384999999968  0.4900039999999990
 
  0.00000000E+00  0.00000000E+00  0.00000000E+00
  0.00000000E+00  0.00000000E+00  0.00000000E+00
  0.00000000E+00  0.00000000E+00  0.00000000E+00
  0.00000000E+00  0.00000000E+00  0.00000000E+00
  0.00000000E+00  0.00000000E+00  0.00000000E+00
